
Gurobi 6.0.4 (win64) logging started 06/14/15 16:31:03

Read LP format model from file E:\Eigene Dateien\Downloads\Michi shit\VRPTWMS-master\VRPTWMS\instances\mip\fuel\N6-C_DV100-C_SV25_F5_11_No_1.lp
Reading time = 0.00 seconds
(null): 253 rows, 134 columns, 987 nonzeros
Optimize a model with 253 rows, 134 columns and 987 nonzeros
Model has 252 quadratic constraints
WARNING: Only barrier available for SOCP models
Coefficient statistics:
  Matrix range    [1e+00, 1e+02]
  Objective range [7e+00, 1e+03]
  Bounds range    [1e+00, 1e+02]
  RHS range       [1e+00, 1e+02]
Presolve removed 43 rows and 24 columns
Presolve time: 0.01s
Presolved: 580 rows, 305 columns, 2724 nonzeros
Variable types: 175 continuous, 130 integer (98 binary)
Optimize a model with 580 rows, 305 columns and 2724 nonzeros
Coefficient statistics:
  Matrix range    [1e+00, 1e+02]
  Objective range [7e+00, 1e+03]
  Bounds range    [1e+00, 1e+02]
  RHS range       [1e+00, 1e+02]
Presolve removed 72 rows and 46 columns
Presolved: 508 rows, 262 columns, 2446 nonzeros


Root relaxation: objective 1.261618e+03, 37 iterations, 0.00 seconds

    Nodes    |    Current Node    |     Objective Bounds      |     Work
 Expl Unexpl |  Obj  Depth IntInf | Incumbent    BestBd   Gap | It/Node Time

     0     0 1261.61826    0   16          - 1261.61826      -     -    0s
H    0     0                    6340.6000000 1261.61826  80.1%     -    0s
H    0     0                    5335.2500000 1261.61826  76.4%     -    0s
     0     0 2174.86634    0   12 5335.25000 2174.86634  59.2%     -    0s
H    0     0                    4310.9600000 2174.86634  49.6%     -    0s
     0     0 2183.01000    0   12 4310.96000 2183.01000  49.4%     -    0s
     0     0 2187.14750    0   22 4310.96000 2187.14750  49.3%     -    0s
     0     0 2187.14750    0   22 4310.96000 2187.14750  49.3%     -    0s
     0     0 2187.14750    0   22 4310.96000 2187.14750  49.3%     -    0s
     0     0 2187.14750    0   22 4310.96000 2187.14750  49.3%     -    0s
     0     0 2187.14750    0   22 4310.96000 2187.14750  49.3%     -    0s
     0     2 2187.14750    0   22 4310.96000 2187.14750  49.3%     -    0s
H   56    29                    3280.9500000 2193.20780  33.2%  10.7    0s
H  141    47                    3254.3700000 2196.96000  32.5%  11.7    0s
H  206    57                    3250.8100000 2196.97500  32.4%  11.5    0s
H  282   102                    3245.2900000 2215.70500  31.7%  12.7    0s
H  335   114                    3235.8900000 2220.97000  31.4%  12.5    0s
H  385   113                    3208.7600000 2220.97000  30.8%  11.8    0s
*  974    36              18    3208.1200000 2237.82067  30.2%  12.9    0s

Cutting planes:
  Gomory: 2
  Cover: 53
  Implied bound: 48
  Clique: 3
  MIR: 15
  Zero half: 5

Explored 1212 nodes (15434 simplex iterations) in 0.19 seconds
Thread count was 4 (of 4 available processors)

Optimal solution found (tolerance 1.00e-04)
Best objective 3.208120000000e+03, best bound 3.208120000000e+03, gap 0.0%
k_c1	6.0
k_c2	5.0
k_c3	100.0
k_c4	100.0
k_c5	18.000000000000032
k_c6	13.0
k_dN	-0.0
o_1	-0.0
o_2	0.0
o_3	-0.0
o_4	-0.0
o_5	0.0
o_6	0.0
p_1	0.0
p_2	0.0
p_3	0.0
p_4	1.0
p_5	1.0
p_6	0.0
phi_c1	2.999999999999943
phi_c2	2.0
phi_c3	2.0
phi_c4	4.0
phi_c5	0.0
phi_c6	2.999999999999943
phi_dN	-0.0
pi_c1	-0.0
pi_c2	-0.0
pi_c3	0.0
pi_c4	1.0000000000000107
pi_c5	22.0
pi_c6	-0.0
pi_dN	-0.0
tauD_c1	60.0
tauD_c2	80.0
tauD_c3	11.0
tauD_c4	25.0
tauD_c5	23.999999999999993
tauD_c6	45.0
tauD_d0	-0.0
tauD_dN	100.0
tauS_c1	84.0
tauS_c2	84.0
tauS_c3	3.0
tauS_c4	41.0
tauS_c5	5.0
tauS_c6	85.0
tauS_d0	-0.0
tauS_dN	52.0
x_c1_c2	0.9999999999999906
x_c2_dN	1.0
x_c3_c5	1.0
x_c4_c1	1.0
x_c5_c6	1.0
x_c6_dN	1.0
x_d0_c3	1.0
x_d0_c4	1.0
z_c4_dN	1.0
z_c5_c4	1.0
z_d0_c5	1.0
